5 5
2 9 4 1 3 30 1 71 0 86
1 20 4 93 3 27 2 89 0 99
4 91 1 63 0 75 2 81 3 31
1 82 4 19 0 93 2 79 3 62
0 7 1 37 4 71 2 86 3 76
-1
0 1 2 3 5
0 1 3 4 5
0 1 3 5
0 2 3 4 5
0 3 5
-2
13 11 50 238
26 211 361 462
131 315 463
150 308 428 477
163 395

506 7
20 17 4 12 9
5 15 3 21 11
0 8 18 23 13
2 7 19 24 14
1 6 16 10 22
